Default write of storage_offers_DA.csv just to have a file (but constraint should be inactive)
Reading model...
...model read.
creating competitive generators file...
...competitive generators recorded.
Loading data...
.. real-time data read.
Compiling instance...
...instance created.
Creating Offer Mitigation (model will solve as dispatch if TRUE)...
NOTE: storage offers will not be mitigated
...storage offer mitigation file created
Converting model to MPEC...
...converted
NOTE: initial MIP solve with only storage competitive to get feasible solution
Solving...

Welcome to IBM(R) ILOG(R) CPLEX(R) Interactive Optimizer 12.9.0.0
  with Simplex, Mixed Integer & Barrier Optimizers
5725-A06 5725-A29 5724-Y48 5724-Y49 5724-Y54 5724-Y55 5655-Y21
Copyright IBM Corp. 1988, 2019.  All Rights Reserved.

Type 'help' for a list of available commands.
Type 'help' followed by a command name for more
information on commands.

CPLEX> Logfile 'cplex.log' closed.
Logfile 'C:\Users\llavin\Desktop\test78\logs\tmpggbb3kgr.cplex.log' open.
CPLEX> New value for parallel optimization mode: -1
CPLEX> New value for mixed integer optimality gap tolerance: 0.01
CPLEX> New value for deterministic time limit in ticks: 30000
CPLEX> Problem 'C:\Users\llavin\Desktop\test78\logs\tmp3xty6m3w.pyomo.lp' read.
Read time = 0.56 sec. (29.18 ticks)
CPLEX> Problem name         : C:\Users\llavin\Desktop\test78\logs\tmp3xty6m3w.pyomo.lp
Objective sense      : Maximize
Variables            :  106816  [Nneg: 1,  Box: 43669,  Free: 8832,
                                 Binary: 54314]
Objective nonzeros   :   18961
Linear constraints   :  244828  [Less: 82143,  Greater: 117460,  Equal: 45225]
  Nonzeros           :  578326
  RHS nonzeros       :  135210

Variables            : Min LB: -5000.000        Max UB: 1000000.       
Objective nonzeros   : Min   : 0.3000000        Max   : 722.0000       
Linear constraints   :
  Nonzeros           : Min   : 0.3000000        Max   : 1000000.       
  RHS nonzeros       : Min   : 0.3000000        Max   : 1000000.       
CPLEX> CPXPARAM_Parallel                                -1
CPXPARAM_DetTimeLimit                            30000
CPXPARAM_MIP_Tolerances_MIPGap                   0.01
Tried aggregator 3 times.
MIP Presolve eliminated 169904 rows and 34001 columns.
MIP Presolve added 7711 rows and 0 columns.
MIP Presolve modified 51232 coefficients.
Aggregator did 25802 substitutions.
Reduced MIP has 56833 rows, 46629 columns, and 165604 nonzeros.
Reduced MIP has 18499 binaries, 0 generals, 0 SOSs, and 0 indicators.
Presolve time = 0.59 sec. (345.67 ticks)
Probing fixed 824 vars, tightened 17281 bounds.
Probing time = 0.45 sec. (19.67 ticks)
Tried aggregator 2 times.
MIP Presolve eliminated 1838 rows and 1657 columns.
MIP Presolve modified 7038 coefficients.
Aggregator did 103 substitutions.
Reduced MIP has 54892 rows, 44869 columns, and 159937 nonzeros.
Reduced MIP has 17673 binaries, 0 generals, 0 SOSs, and 0 indicators.
Presolve time = 0.27 sec. (177.75 ticks)
Probing fixed 0 vars, tightened 453 bounds.
Probing time = 0.80 sec. (33.05 ticks)
Clique table members: 124888.
MIP emphasis: balance optimality and feasibility.
MIP search method: dynamic search.
Parallel mode: opportunistic, using up to 32 threads.
Root relaxation solution time = 1.25 sec. (838.75 ticks)

        Nodes                                         Cuts/
   Node  Left     Objective  IInf  Best Integer    Best Bound    ItCnt     Gap

      0     0     -314.2110   355                   -314.2110      115         
      0     0     -314.2110    51                   Cuts: 135      189         
      0     0     -314.2110    34                    Cuts: 43      222         
      0     0     -314.2118    35                    Cuts: 14      227         
      0     0     -314.2123    26                     Cuts: 4      232         
      0     0     -314.2123    28                     Cuts: 8      239         
      0    22    -3071.0065    25                     Cuts: 5      367         
Elapsed time = 13.23 sec. (6776.32 ticks, tree = 0.02 MB, solutions = 0)
    272    64     -361.0038    21                   -315.2809     1071         
    559   254     -440.5248    17                   -315.8703    17680         
    756   201    -1104.3657    10                   -315.8703    11802         
    912   580     -600.1256    27                   -315.8703    86014         
   1077   559    -2897.1748    23                   -315.8703    79987         
   1242   620     -524.0326     9                   -315.8703   105793         
   1402   623     -517.5922    24                   -315.8703   109636         
   1621   667     -448.8020    18                   -315.8703   144300         
   1853   705     -383.3205    26                   -315.8703   142871         
   2822  1088   -49044.4380    41                   -315.8703   307798         
Elapsed time = 32.05 sec. (9880.77 ticks, tree = 33.41 MB, solutions = 0)
*  3648  1665      integral     0     -565.3077     -315.8703   354395   44.12%
*  4966  2012      integral     0     -555.6040     -315.8703   374289   43.15%
   6501  1213     -399.6840    23     -555.6040     -315.8703   403122   43.15%
   8226  2121        cutoff           -555.6040     -315.8703   407708   43.15%

GUB cover cuts applied:  5
Clique cuts applied:  3
Cover cuts applied:  28
Implied bound cuts applied:  36
Flow cuts applied:  161
Mixed integer rounding cuts applied:  120
Zero-half cuts applied:  3
Gomory fractional cuts applied:  86

Root node processing (before b&c):
  Real time             =    9.62 sec. (6689.52 ticks)
Parallel b&c, 32 threads:
  Real time             =   49.09 sec. (10348.63 ticks)
  Sync time (average)   =    1.88 sec.
  Wait time (average)   =    0.00 sec.
                          ------------
Total (root+branch&cut) =   58.72 sec. (17038.14 ticks)

Solution pool: 2 solutions saved.

MIP - Integer optimal, tolerance (0.01/1e-06):  Objective = -5.5560404304e+02
Current MIP best bound = -5.5035059222e+02 (gap = 5.25345, 0.95%)
Solution time =   58.75 sec.  Iterations = 425850  Nodes = 8964 (3922)
Deterministic time = 17038.45 ticks  (290.02 ticks/sec)

CPLEX> Incumbent solution written to file 'C:\Users\llavin\Desktop\test78\logs\tmpl6cikf2r.cplex.sol'.
CPLEX> NOTE: no warmstart specified for MIP iteration, default behavior is true
NOTE: resolving with all competitive generators using storage-only solution to warmstart
Solving...

Welcome to IBM(R) ILOG(R) CPLEX(R) Interactive Optimizer 12.9.0.0
  with Simplex, Mixed Integer & Barrier Optimizers
5725-A06 5725-A29 5724-Y48 5724-Y49 5724-Y54 5724-Y55 5655-Y21
Copyright IBM Corp. 1988, 2019.  All Rights Reserved.

Type 'help' for a list of available commands.
Type 'help' followed by a command name for more
information on commands.

CPLEX> Logfile 'cplex.log' closed.
Logfile 'C:\Users\llavin\Desktop\test78\logs\tmpnlgr8k1_.cplex.log' open.
CPLEX> New value for parallel optimization mode: -1
CPLEX> New value for mixed integer optimality gap tolerance: 0.01
CPLEX> New value for deterministic time limit in ticks: 30000
CPLEX> Problem 'C:\Users\llavin\Desktop\test78\logs\tmpb4z2sgyx.pyomo.lp' read.
Read time = 0.51 sec. (29.22 ticks)
CPLEX> MIP start file 'C:\Users\llavin\Desktop\test78\logs\tmpt5c1tb0h.cplex.mst' read.
CPLEX> Problem name         : C:\Users\llavin\Desktop\test78\logs\tmpb4z2sgyx.pyomo.lp
Objective sense      : Maximize
Variables            :  108256  [Nneg: 1,  Box: 45109,  Free: 8832,
                                 Binary: 54314]
Objective nonzeros   :   20353
Linear constraints   :  244828  [Less: 82143,  Greater: 117460,  Equal: 45225]
  Nonzeros           :  578326
  RHS nonzeros       :  135210

Variables            : Min LB: -5000.000        Max UB: 1000000.       
Objective nonzeros   : Min   : 0.3000000        Max   : 722.0000       
Linear constraints   :
  Nonzeros           : Min   : 0.3000000        Max   : 1000000.       
  RHS nonzeros       : Min   : 0.3000000        Max   : 1000000.       
CPLEX> CPXPARAM_Parallel                                -1
CPXPARAM_DetTimeLimit                            30000
CPXPARAM_MIP_Tolerances_MIPGap                   0.01
Warning:  No solution found from 1 MIP starts.
Retaining values of one MIP start for possible repair.
Tried aggregator 3 times.
MIP Presolve eliminated 169904 rows and 35441 columns.
MIP Presolve added 7711 rows and 0 columns.
MIP Presolve modified 51232 coefficients.
Aggregator did 25802 substitutions.
Reduced MIP has 56833 rows, 46629 columns, and 165604 nonzeros.
Reduced MIP has 18499 binaries, 0 generals, 0 SOSs, and 0 indicators.
Presolve time = 0.63 sec. (346.44 ticks)
Probing fixed 824 vars, tightened 17281 bounds.
Probing time = 0.48 sec. (19.67 ticks)
Tried aggregator 2 times.
MIP Presolve eliminated 1838 rows and 1657 columns.
MIP Presolve modified 7038 coefficients.
Aggregator did 103 substitutions.
Reduced MIP has 54892 rows, 44869 columns, and 159937 nonzeros.
Reduced MIP has 17673 binaries, 0 generals, 0 SOSs, and 0 indicators.
Presolve time = 0.27 sec. (177.76 ticks)
Probing fixed 0 vars, tightened 453 bounds.
Probing time = 0.86 sec. (33.05 ticks)
Clique table members: 124888.
MIP emphasis: balance optimality and feasibility.
MIP search method: dynamic search.
Parallel mode: opportunistic, using up to 32 threads.
Root relaxation solution time = 1.14 sec. (728.23 ticks)

        Nodes                                         Cuts/
   Node  Left     Objective  IInf  Best Integer    Best Bound    ItCnt     Gap

      0     0   107234.0718   447                 107234.0718       36         
      0     0   107128.5731   149                   Cuts: 232      293         
      0     0   107033.7799   143                   Cuts: 178      463         
      0     0   106947.0336   143                    Cuts: 97      556         
      0     0   106866.1793   149                    Cuts: 71      617         
      0     0   106831.0422   146                    Cuts: 57      679         
      0     0   106787.5921   160                    Cuts: 47      723         
      0     0   106778.4596   155                    Cuts: 31      752         
      0     0   106750.9097   160                    Cuts: 20      773         
      0     0   106743.3347   160                    Cuts: 24      789         
      0     0   106742.7501   154                  MIRcuts: 1      796         
Repair heuristic found nothing.
      0     3    infeasible                       106712.4045      971         
Elapsed time = 14.25 sec. (8505.50 ticks, tree = 0.02 MB, solutions = 0)
     76     7   106264.3340   122                 106552.6604     1027         
    277    65   106189.5768   138                 106552.6604     2809         
    537    74   105562.2106   113                 106552.6604     2902         
    703   186   105541.6624   127                 106552.6604     4929         
    990   306   104362.2712    94                 106552.6604     6695         
   1266   697   103829.0017   125                 106552.6604    11840         
   1551  1188   103866.0620    83                 106552.6604    17240         
   1852  1485   103561.7177    72                 106552.6604    21011         
   2137  1338   103415.7793    62                 106552.6604    19152         
   3199  2300   105386.1411   132                 106552.6604    71377         
Elapsed time = 36.19 sec. (11618.35 ticks, tree = 43.98 MB, solutions = 0)
   4120  3031   103903.0080   105                 106552.6604   112510         
   4931  4052    76635.2519    63                 106552.6604   151354         
   5814  4560   -51257.3629    99                 106552.6604   179598         
   6756  5412   -51817.3712   100                 106552.6604   205309         
   7713  5716    89574.0591    25                 106552.6604   245028         
   8446  6013    52817.2642    15                 106552.6604   306165         

GUB cover cuts applied:  1
Clique cuts applied:  70
Cover cuts applied:  56
Implied bound cuts applied:  20
Flow cuts applied:  333
Mixed integer rounding cuts applied:  58
Zero-half cuts applied:  1
Gomory fractional cuts applied:  16

Root node processing (before b&c):
  Real time             =   12.95 sec. (8494.72 ticks)
Parallel b&c, 32 threads:
  Real time             =   72.13 sec. (21558.19 ticks)
  Sync time (average)   =    2.59 sec.
  Wait time (average)   =    0.00 sec.
                          ------------
Total (root+branch&cut) =   85.08 sec. (30052.91 ticks)


MIP - Deterministic time limit exceeded, no integer solution.
Current MIP best bound =  1.0655266045e+05 (gap is infinite)
Solution time =   85.09 sec.  Iterations = 375350  Nodes = 8543 (6769)
Deterministic time = 30053.22 ticks  (353.18 ticks/sec)

CPLEX> CPLEX Error  1217: No solution exists.
No file written.
CPLEX> Exporting results... 
